0 40 70
1 60 75
2 64 74
3 65 71
4 55 71
5 66 69
6 52 66
7 54 71
8 73 73
9 63 69
10 61 69
11 42 67
12 59 70
13 52 67
14 52 62
15 51 60
16 46 57
17 49 55
18 51 51
19 44 48
20 45 45
21 39 44
22 34 47
23 44 46
24 44 44
25 42 45
26 39 42
27 38 39
28 34 41
29 13 39
30 37 39
31 37 38
32 37 37
33 35 37
34 32 37
35 31 34
36 20 34
37 30 30
38 24 31
39 11 29
40 20 28
41 15 26
42 23 24
43 23 23
44 22 24
45 8 22
46 11 21
47 15 18
48 13 16
49 11 15
50 12 13
51 11 11
52 3 14
53 12 16
54 10 11
55 4 11
56 9 10
57 7 8
58 8 9
59 11 11
60 10 10
61 5 7
62 6 8
63 3 7
64 4 6
65 3 4
66 1 1
67 1 1
68 1 2
69 1 1

